c SAT problem
p wcnf 382 1487
1 -60 75 0
1 60 -3135 0
1 -75 -76 0
1 90 -3075 0
1 -90 3135 0
1 105 -3150 0
1 105 3135 0
1 3120 196 0
1 3120 -105 0
1 -3120 -181 0
1 -3135 -196 0
1 -3135 -135 0
1 -3135 -105 0
1 3135 -60 0
1 3150 -136 0
1 3150 105 0
1 -3150 75 0
1 -3150 121 0
1 3150 -60 0
1 3150 -3165 0
1 -3165 105 0
1 -120 -3075 0
1 -120 3090 0
1 -135 -3060 0
1 -135 -120 0
1 -135 -3135 0
1 150 -3105 0
1 150 -3075 0
1 -150 3015 0
1 150 3090 0
1 -150 -3060 0
1 -150 3030 0
1 150 3000 0
1 -165 3015 0
1 165 -3090 0
1 165 -150 0
1 165 -3000 0
1 165 3135 0
1 -3060 195 0
1 -3060 -3075 0
1 -3060 -165 0
1 -3060 3061 0
1 -3060 -150 0
1 -3060 -90 0
1 3075 -195 0
1 -3075 -3076 0
1 3075 210 0
1 3075 -3060 0
1 3090 -135 0
1 3090 90 0
1 3090 255 0
1 3105 135 0
1 -3105 90 0
1 180 -3075 0
1 180 3060 0
1 -180 -3000 0
1 195 -180 0
1 -195 -3060 0
1 195 -3030 0
1 -210 -3075 0
1 -210 -3045 0
1 -210 211 0
1 -225 3045 0
1 225 -210 0
1 -225 3060 0
1 -3000 225 0
1 3000 -195 0
1 3000 -165 0
1 3000 -180 0
1 3015 3016 0
1 3015 180 0
1 3030 195 0
1 -3030 -240 0
1 3030 -315 0
1 3030 285 0
1 -3045 -180 0
1 3045 255 0
1 -61 -3345 0
1 61 3315 0
1 61 60 0
1 76 -3300 0
1 -76 -3345 0
1 -91 3270 0
1 -91 3285 0
1 -91 3255 0
1 106 -3285 0
1 -3300 -166 0
1 -3300 3315 0
1 3300 182 0
1 3300 -61 0
1 3315 -166 0
1 -3315 106 0
1 -3315 91 0
1 3330 -3331 0
1 -3330 197 0
1 -3330 -182 0
1 3330 -91 0
1 3345 -122 0
1 121 136 0
1 136 3150 0
1 -136 3255 0
1 136 -121 0
1 -151 -3180 0
1 151 -150 0
1 -166 -3300 0
1 166 167 0
1 166 3180 0
1 -166 3150 0
1 166 -3285 0
1 -166 151 0
1 -166 3225 0
1 3240 256 0
1 -3240 -166 0
1 -3240 136 0
1 -3240 -241 0
1 3240 211 0
1 3240 -151 0
1 3240 91 0
1 -3255 196 0
1 -3255 -166 0
1 3255 241 0
1 3270 227 0
1 3270 -197 0
1 3270 -166 0
1 3270 106 0
1 -3285 197 0
1 3285 -166 0
1 3285 121 0
1 3285 -91 0
1 -181 -196 0
1 181 3240 0
1 -181 3150 0
1 -181 3090 0
1 -181 -182 0
1 181 3225 0
1 -196 3180 0
1 -196 3150 0
1 -196 -3120 0
1 -196 -3225 0
1 -196 -3165 0
1 -211 3136 0
1 211 -3105 0
1 -211 3090 0
1 211 -3225 0
1 226 -3105 0
1 226 -227 0
1 -226 3210 0
1 -226 211 0
1 -226 3195 0
1 -3180 301 0
1 -3180 -211 0
1 3180 181 0
1 3180 151 0
1 3180 255 0
1 3195 166 0
1 3195 3180 0
1 -3195 301 0
1 3195 285 0
1 -3195 -255 0
1 3210 -301 0
1 3210 271 0
1 -3210 151 0
1 -3210 -3225 0
1 -3225 -256 0
1 3225 -196 0
1 3225 -211 0
1 240 -3151 0
1 -240 -3090 0
1 240 255 0
1 255 -256 0
1 -255 3136 0
1 -255 -3045 0
1 255 -3180 0
1 255 -3090 0
1 -270 -3076 0
1 270 271 0
1 270 -3030 0
1 285 -3180 0
1 285 270 0
1 285 -3151 0
1 -285 -3121 0
1 285 -3166 0
1 3121 -3136 0
1 -3121 255 0
1 3136 240 0
1 -3136 211 0
1 3136 376 0
1 3136 345 0
1 -3151 -270 0
1 -3166 -301 0
1 -3166 240 0
1 3166 -211 0
1 -3166 -3165 0
1 -3166 -376 0
1 -3166 285 0
1 3166 255 0
1 -300 -3015 0
1 -300 -3000 0
1 300 315 0
1 315 3076 0
1 315 -3015 0
1 -315 3091 0
1 315 -3030 0
1 -315 -3000 0
1 330 3136 0
1 330 -3106 0
1 -330 3046 0
1 330 345 0
1 330 3121 0
1 -330 -3001 0
1 345 3136 0
1 345 330 0
1 345 346 0
1 -3061 -390 0
1 -3061 405 0
1 3061 -3062 0
1 3061 -345 0
1 3076 3075 0
1 -3076 -420 0
1 3076 -3077 0
1 -3076 -270 0
1 -3076 -405 0
1 3091 -361 0
1 -3091 -330 0
1 -3091 406 0
1 3091 345 0
1 -3106 330 0
1 3106 -270 0
1 -3106 -435 0
1 3106 3091 0
1 -3106 -285 0
1 360 -3076 0
1 -360 -3046 0
1 360 3016 0
1 360 -3031 0
1 375 376 0
1 -390 3076 0
1 -390 -3046 0
1 -390 -3016 0
1 -390 405 0
1 390 -3061 0
1 390 -3031 0
1 390 3001 0
1 -405 -3046 0
1 405 3001 0
1 3001 -480 0
1 -3016 -390 0
1 3016 3017 0
1 -3031 -450 0
1 -3031 495 0
1 3031 465 0
1 -3031 -435 0
1 3031 -375 0
1 -3046 -480 0
1 -3046 3045 0
1 3046 390 0
1 3046 -3047 0
1 3046 330 0
1 -3046 -465 0
1 3046 -3031 0
1 -62 3525 0
1 62 -3510 0
1 -62 63 0
1 -77 -76 0
1 -77 3510 0
1 77 3480 0
1 -92 107 0
1 -92 -3450 0
1 92 -93 0
1 107 3525 0
1 -107 92 0
1 3480 183 0
1 -3480 152 0
1 3495 167 0
1 -3495 -3496 0
1 -3495 -122 0
1 3495 -92 0
1 3495 62 0
1 -3510 -183 0
1 3510 92 0
1 -3525 -168 0
1 -3525 -77 0
1 -122 -3435 0
1 122 -3345 0
1 -122 3480 0
1 -122 -121 0
1 -137 -3495 0
1 137 -136 0
1 -137 -3465 0
1 137 -3480 0
1 137 -3420 0
1 152 3465 0
1 152 -3375 0
1 -152 3480 0
1 -152 3450 0
1 152 -3420 0
1 -167 -3330 0
1 -167 152 0
1 -167 -3450 0
1 3420 -197 0
1 -3420 3435 0
1 3420 182 0
1 3420 -92 0
1 3435 257 0
1 3435 242 0
1 -3435 -212 0
1 -3435 152 0
1 -3450 -198 0
1 3450 -167 0
1 3450 137 0
1 3450 -107 0
1 3450 -183 0
1 3465 228 0
1 -3465 198 0
1 3465 107 0
1 -3465 213 0
1 3465 152 0
1 3465 92 0
1 -182 -3330 0
1 -182 -3270 0
1 -182 3315 0
1 -182 -3285 0
1 197 -3375 0
1 212 227 0
1 212 3405 0
1 -212 213 0
1 212 3420 0
1 227 226 0
1 -227 3435 0
1 -227 3405 0
1 227 3390 0
1 -3360 3361 0
1 3360 241 0
1 3360 -212 0
1 -3360 -286 0
1 3375 -167 0
1 -3375 271 0
1 3375 3376 0
1 3375 286 0
1 3390 -257 0
1 3390 -197 0
1 -3390 3391 0
1 -3390 272 0
1 -3390 -242 0
1 -3405 -302 0
1 -3405 272 0
1 -3405 -212 0
1 3405 -182 0
1 -3405 -152 0
1 3405 -3390 0
1 3405 -287 0
1 -241 -3331 0
1 241 -3210 0
1 -241 -240 0
1 -241 3316 0
1 -241 -3255 0
1 256 3360 0
1 -256 257 0
1 256 3240 0
1 -256 -3285 0
1 -256 255 0
1 271 3301 0
1 271 3241 0
1 271 -3210 0
1 -271 -272 0
1 271 3316 0
1 271 -3225 0
1 271 -286 0
1 -286 -3241 0
1 286 -271 0
1 -286 -3316 0
1 -286 -3286 0
1 -286 -3256 0
1 3301 256 0
1 3301 3302 0
1 -3301 301 0
1 3301 377 0
1 3316 -331 0
1 3316 -271 0
1 -3316 -377 0
1 3331 -3332 0
1 3331 332 0
1 -3331 -271 0
1 3331 -3346 0
1 -3331 377 0
1 -3331 347 0
1 3346 256 0
1 -3346 377 0
1 3346 -347 0
1 301 3241 0
1 301 -3180 0
1 -301 3286 0
1 316 -3286 0
1 -316 3225 0
1 331 3301 0
1 331 -3226 0
1 -331 330 0
1 -331 -3211 0
1 -331 -332 0
1 -331 3151 0
1 346 -3271 0
1 -346 331 0
1 346 3181 0
1 -346 -3151 0
1 -346 3226 0
1 3241 -3256 0
1 3241 3240 0
1 3241 -3242 0
1 3241 406 0
1 3241 -376 0
1 -3241 -346 0
1 -3241 316 0
1 -3256 -391 0
1 -3256 436 0
1 3256 -376 0
1 -3271 -3272 0
1 -3286 421 0
1 -3286 3287 0
1 3286 -286 0
1 -361 -3136 0
1 361 -3241 0
1 361 -362 0
1 361 -3181 0
1 361 -3166 0
1 376 -361 0
1 376 -3211 0
1 -376 3091 0
1 -391 -3226 0
1 391 3196 0
1 -406 3137 0
1 -406 -391 0
1 406 3241 0
1 -406 -3181 0
1 406 405 0
1 406 3256 0
1 -406 -3196 0
1 -406 3167 0
1 -3181 331 0
1 3181 3182 0
1 -3181 -465 0
1 3181 376 0
1 3181 -346 0
1 3196 -420 0
1 -3196 -435 0
1 -3196 -376 0
1 3196 3197 0
1 3211 -481 0
1 3211 -451 0
1 -3211 -391 0
1 -3211 -361 0
1 -3211 -466 0
1 3211 -436 0
1 3211 406 0
1 3226 481 0
1 3226 -361 0
1 -3226 406 0
1 -3226 3227 0
1 -420 -3137 0
1 -420 3106 0
1 420 3076 0
1 -420 -3152 0
1 420 -3122 0
1 -420 -3091 0
1 -420 -3061 0
1 420 3196 0
1 -435 3137 0
1 -435 -420 0
1 -435 3181 0
1 -435 3152 0
1 435 -3122 0
1 435 -3196 0
1 450 3137 0
1 450 -3181 0
1 450 -465 0
1 465 -3107 0
1 -465 3077 0
1 -465 -3122 0
1 -465 3031 0
1 3122 480 0
1 -3122 -450 0
1 3122 -420 0
1 3122 -541 0
1 -3137 3136 0
1 -3137 450 0
1 3137 510 0
1 -3152 420 0
1 3152 465 0
1 3152 3153 0
1 -3152 -435 0
1 -3167 3168 0
1 -3167 420 0
1 3167 496 0
1 -3167 435 0
1 -3167 -541 0
1 -495 -3107 0
1 -495 -3046 0
1 -495 -3016 0
1 -495 -496 0
1 -510 -3137 0
1 510 3002 0
1 525 3062 0
1 525 3002 0
1 -3062 480 0
1 3062 3061 0
1 -3062 600 0
1 3062 540 0
1 -3077 525 0
1 -3077 -495 0
1 3077 510 0
1 3092 480 0
1 -3092 -465 0
1 3092 600 0
1 3107 615 0
1 3107 586 0
1 3107 -3092 0
1 -3107 571 0
1 3107 -510 0
1 540 3077 0
1 540 -3047 0
1 -540 -555 0
1 540 541 0
1 -555 3017 0
1 -570 3077 0
1 -570 -3047 0
1 -570 -585 0
1 -585 586 0
1 -585 3062 0
1 -585 -3032 0
1 3002 3017 0
1 -3002 540 0
1 3002 -510 0
1 -3017 -555 0
1 -3017 570 0
1 -3032 -3047 0
1 -3032 -585 0
1 -3032 600 0
1 -3032 -3033 0
1 3032 570 0
1 3032 540 0
1 3032 510 0
1 3047 615 0
1 3047 3032 0
1 -3047 -510 0
1 63 3660 0
1 63 -3705 0
1 -63 3675 0
1 78 -3690 0
1 78 77 0
1 78 3705 0
1 -93 3690 0
1 -93 108 0
1 93 3630 0
1 -93 3705 0
1 -93 3615 0
1 108 -3645 0
1 -108 -3690 0
1 3660 -138 0
1 3660 108 0
1 3660 -78 0
1 3660 -123 0
1 3660 63 0
1 -3675 -168 0
1 3675 108 0
1 -3675 78 0
1 3675 -3676 0
1 3675 93 0
1 -3690 -108 0
1 3690 -78 0
1 -3690 63 0
1 -3705 3690 0
1 3705 -93 0
1 -123 -138 0
1 -123 -3630 0
1 -123 -3600 0
1 -123 -3675 0
1 123 -3615 0
1 138 -3630 0
1 138 -3510 0
1 -153 3555 0
1 153 -3510 0
1 -153 -3645 0
1 -168 3555 0
1 168 -3660 0
1 168 3510 0
1 -168 153 0
1 -168 -3675 0
1 3600 -258 0
1 -3600 -243 0
1 3600 123 0
1 -3615 258 0
1 3615 123 0
1 3630 -3645 0
1 -3630 168 0
1 -3645 138 0
1 -183 3525 0
1 -183 3465 0
1 -183 3570 0
1 -183 3450 0
1 198 -3555 0
1 -198 197 0
1 -198 -3495 0
1 -213 -3555 0
1 -213 3526 0
1 -213 -3615 0
1 -228 -3496 0
1 -228 -3540 0
1 -228 -3481 0
1 228 3450 0
1 -3540 242 0
1 -3540 -3541 0
1 -3540 -318 0
1 3555 303 0
1 -3555 213 0
1 3555 -183 0
1 -3570 -228 0
1 -3570 -168 0
1 -3570 -303 0
1 -3570 213 0
1 3570 -183 0
1 3585 -258 0
1 3585 198 0
1 -3585 153 0
1 -3585 -318 0
1 242 -3496 0
1 242 3465 0
1 242 -3435 0
1 -242 3540 0
1 242 -3481 0
1 257 -3555 0
1 257 3526 0
1 -257 3465 0
1 -257 -242 0
1 257 3540 0
1 257 3481 0
1 -272 3555 0
1 -272 3496 0
1 -272 273 0
1 -272 -3451 0
1 272 -3390 0
1 -287 3526 0
1 -287 -3466 0
1 -287 -3405 0
1 287 3540 0
1 287 -3390 0
1 3481 -257 0
1 -3481 -228 0
1 -3481 302 0
1 3481 -3482 0
1 3481 242 0
1 -3481 3480 0
1 -3481 -317 0
1 3496 228 0
1 3496 -272 0
1 3496 242 0
1 3511 -257 0
1 -3511 -287 0
1 -3526 -257 0
1 3526 272 0
1 -3526 378 0
1 3526 348 0
1 -3526 287 0
1 302 -3331 0
1 -302 -3466 0
1 -302 -3481 0
1 -302 -3390 0
1 317 3496 0
1 -317 -3436 0
1 317 -3481 0
1 332 -3361 0
1 -332 -3466 0
1 347 3331 0
1 347 -332 0
1 -347 3406 0
1 -347 -3376 0
1 -347 -3451 0
1 -347 -3421 0
1 3421 -392 0
1 3421 -362 0
1 -3421 -3436 0
1 3421 302 0
1 -3421 -437 0
1 -3421 377 0
1 3421 347 0
1 3421 -317 0
1 3421 -3422 0
1 3421 -287 0
1 -3436 -392 0
1 3436 3435 0
1 -3436 3437 0
1 -3436 437 0
1 -3436 377 0
1 -3451 -272 0
1 -3451 437 0
1 3466 -422 0
1 -3466 3465 0
1 -3466 -3467 0
1 -3466 408 0
1 3466 378 0
1 3466 -317 0
1 -362 3301 0
1 362 3271 0
1 -362 -361 0
1 -362 -3376 0
1 -362 -377 0
1 -377 -3361 0
1 377 3271 0
1 377 3346 0
1 377 -376 0
1 -377 -378 0
1 377 -3391 0
1 392 -393 0
1 -392 3376 0
1 -392 3317 0
1 -392 3286 0
1 407 -3271 0
1 -407 -3406 0
1 -407 -3317 0
1 3361 -451 0
1 3361 3362 0
1 -3361 -421 0
1 3361 -392 0
1 -3361 362 0
1 3361 332 0
1 -3361 -3376 0
1 3361 -436 0
1 -3361 -347 0
1 3376 392 0
1 3376 -497 0
1 -3376 436 0
1 3376 407 0
1 3391 -482 0
1 -3391 -347 0
1 -3391 -3390 0
1 3406 -392 0
1 -3406 -362 0
1 3406 3407 0
1 -3406 -437 0
1 -3406 3391 0
1 -421 -3361 0
1 421 -3302 0
1 -421 -3347 0
1 -421 -3286 0
1 421 -3256 0
1 436 3302 0
1 -436 3211 0
1 -436 -3317 0
1 -436 -3256 0
1 -436 3226 0
1 -451 -3361 0
1 451 -452 0
1 451 -3272 0
1 -451 -3242 0
1 -451 3211 0
1 451 3347 0
1 -451 -3287 0
1 466 3361 0
1 466 -3302 0
1 -466 3272 0
1 -466 3376 0
1 -466 -3287 0
1 -466 -3226 0
1 3302 -526 0
1 -3302 436 0
1 3302 -407 0
1 3302 -511 0
1 -3317 421 0
1 3317 -466 0
1 -3317 -3318 0
1 -3332 392 0
1 -3332 -527 0
1 -3347 451 0
1 -3347 527 0
1 3347 3348 0
1 -3347 407 0
1 481 -482 0
1 -481 -3152 0
1 481 -3257 0
1 -496 -3272 0
1 496 3242 0
1 496 3211 0
1 -496 495 0
1 -496 -497 0
1 -496 -3196 0
1 511 -3272 0
1 511 -526 0
1 -511 -3152 0
1 511 -3227 0
1 511 3167 0
1 -526 -3272 0
1 -526 -3242 0
1 -526 511 0
1 -526 3212 0
1 526 527 0
1 526 -3317 0
1 526 3227 0
1 -526 3197 0
1 -526 3167 0
1 3242 -481 0
1 3242 -451 0
1 -3242 -586 0
1 3242 -526 0
1 3242 601 0
1 3242 541 0
1 -3257 451 0
1 -3257 -616 0
1 -3257 526 0
1 -3257 601 0
1 3272 -616 0
1 3272 3273 0
1 -3272 -526 0
1 -3272 496 0
1 -3272 -466 0
1 -3287 496 0
1 3287 -466 0
1 -3287 3288 0
1 -3287 572 0
1 541 3107 0
1 541 -556 0
1 -541 -3197 0
1 556 3137 0
1 -556 -557 0
1 556 -3122 0
1 -556 3197 0
1 571 -3138 0
1 571 586 0
1 -571 -3227 0
1 571 572 0
1 -586 3168 0
1 -586 -3138 0
1 -586 -585 0
1 586 -587 0
1 -586 -3182 0
1 -3182 -3197 0
1 -3197 -615 0
1 -3197 571 0
1 -3212 -646 0
1 3212 -3211 0
1 -3212 556 0
1 -3212 3213 0
1 -3227 -586 0
1 3227 661 0
1 -3227 3228 0
1 -3227 -511 0
1 600 -3168 0
1 600 3077 0
1 -600 615 0
1 600 -3062 0
1 615 3107 0
1 -615 3153 0
1 615 -600 0
1 -615 -3197 0
1 630 -3108 0
1 630 3047 0
1 630 -631 0
1 630 -3093 0
1 -645 3168 0
1 -645 3123 0
1 645 3093 0
1 3123 -736 0
1 -3123 -705 0
1 -3123 -3138 0
1 -3123 -615 0
1 -3123 -3122 0
1 3138 -705 0
1 -3138 3137 0
1 3138 675 0
1 3138 721 0
1 -3138 -630 0
1 3138 -571 0
1 3153 -3168 0
1 -3153 -615 0
1 -3153 -586 0
1 3153 691 0
1 3153 -661 0
1 3153 630 0
1 3153 -600 0
1 3168 706 0
1 3168 661 0
1 -3168 -600 0
1 660 -675 0
1 660 3063 0
1 -660 3002 0
1 -675 -3078 0
1 -675 -3032 0
1 -690 -691 0
1 -690 -3123 0
1 690 3003 0
1 705 -706 0
1 -705 -3138 0
1 705 3018 0
1 705 3123 0
1 -705 3093 0
1 3063 675 0
1 3063 645 0
1 -3063 -750 0
1 -3063 -660 0
1 3063 -630 0
1 -3063 765 0
1 -3078 675 0
1 3078 -645 0
1 -3078 3077 0
1 -3078 -750 0
1 -3078 3063 0
1 -3093 -705 0
1 -3093 675 0
1 -3093 -690 0
1 -3093 766 0
1 3108 -705 0
1 3108 -3107 0
1 -3108 645 0
1 720 721 0
1 -720 -3063 0
1 720 3003 0
1 735 -736 0
1 750 -3003 0
1 -3018 -705 0
1 -3018 750 0
1 -3033 690 0
1 -243 -3691 0
1 -243 3630 0
1 243 3615 0
1 -258 3630 0
1 258 -3645 0
1 -258 -3615 0
1 -273 -3691 0
1 273 -3570 0
1 -273 -3706 0
1 273 -3646 0
1 -288 3585 0
1 -288 3691 0
1 288 3661 0
1 288 273 0
1 288 3601 0
1 288 -3706 0
1 -288 287 0
1 -3661 -288 0
1 3661 -258 0
1 -3661 -273 0
1 -3661 -348 0
1 3676 -333 0
1 3676 -3675 0
1 -3691 258 0
1 -3691 3690 0
1 -3691 273 0
1 -3706 288 0
1 -303 -3616 0
1 303 3585 0
1 -303 3555 0
1 303 -3526 0
1 303 -302 0
1 303 -3601 0
1 303 -3570 0
1 -318 -3616 0
1 -318 3526 0
1 -318 3676 0
1 -318 317 0
1 333 3556 0
1 -333 -3661 0
1 -333 3601 0
1 333 3646 0
1 333 -3676 0
1 348 -3556 0
1 348 333 0
1 -348 3631 0
1 348 -3541 0
1 348 3511 0
1 -3601 3616 0
1 3601 363 0
1 3601 3602 0
1 3601 438 0
1 -3601 -348 0
1 3616 393 0
1 3616 363 0
1 -3616 -303 0
1 -3616 -438 0
1 3631 423 0
1 3631 438 0
1 3631 318 0
1 -3646 438 0
1 -3646 -3647 0
1 -363 -3496 0
1 363 362 0
1 363 3511 0
1 378 3466 0
1 -378 363 0
1 393 3616 0
1 -393 3556 0
1 393 3512 0
1 393 392 0
1 -393 -3466 0
1 -393 408 0
1 -393 -3451 0
1 -408 -3586 0
1 -408 3556 0
1 -408 -393 0
1 -408 -3541 0
1 408 -3512 0
1 -3541 3556 0
1 3541 393 0
1 3541 498 0
1 3541 467 0
1 3541 378 0
1 3541 -348 0
1 3556 483 0
1 3556 422 0
1 3556 363 0
1 -3556 333 0
1 3556 3541 0
1 3571 3570 0
1 -3571 -3572 0
1 -3571 438 0
1 -3586 3585 0
1 3586 -3587 0
1 -3586 363 0
1 -3586 498 0
1 -3586 3571 0
1 3586 -468 0
1 3586 -438 0
1 3586 -378 0
1 -422 -3556 0
1 -422 421 0
1 422 -3406 0
1 -422 -437 0
1 -422 3541 0
1 -422 -3512 0
1 422 -3482 0
1 422 -3421 0
1 -422 3391 0
1 437 -3556 0
1 -437 -3466 0
1 -437 -438 0
1 437 -3482 0
1 -452 3556 0
1 -452 453 0
1 -452 3406 0
1 452 3541 0
1 -467 452 0
1 -467 3437 0
1 -467 -466 0
1 3482 -497 0
1 -3482 -3481 0
1 -3497 512 0
1 3497 -3496 0
1 3497 -558 0
1 3497 437 0
1 3497 -3482 0
1 -3512 558 0
1 3527 -483 0
1 3527 422 0
1 3527 467 0
1 -3527 -543 0
1 482 3437 0
1 482 -497 0
1 482 3391 0
1 -497 482 0
1 -497 -3332 0
1 497 -3497 0
1 497 3437 0
1 -497 -3406 0
1 -497 496 0
1 497 -3376 0
1 -497 -3347 0
1 -497 -3482 0
1 -512 3497 0
1 -512 3437 0
1 -512 -3407 0
1 -512 3377 0
1 -512 -3482 0
1 512 511 0
1 -527 -3467 0
1 -527 -3437 0
1 527 526 0
1 -527 -3407 0
1 527 -3482 0
1 527 3422 0
1 3422 -482 0
1 -3422 -557 0
1 3422 -527 0
1 3437 512 0
1 -3437 -452 0
1 -3437 -587 0
1 -3437 3436 0
1 3452 -512 0
1 3452 -3467 0
1 3452 -467 0
1 -3452 3453 0
1 -3452 -3451 0
1 -3452 -543 0
1 3467 482 0
1 3467 -617 0
1 3467 3468 0
1 3467 527 0
1 -3467 -497 0
1 3467 3452 0
1 -3467 543 0
1 557 -3302 0
1 557 -3437 0
1 -557 -3407 0
1 -557 3377 0
1 -557 3347 0
1 572 -3362 0
1 -572 587 0
1 572 571 0
1 -587 3392 0
1 -587 -3362 0
1 -587 3333 0
1 587 -3303 0
1 587 -3407 0
1 587 -3377 0
1 587 -3422 0
1 -3362 512 0
1 -3362 -616 0
1 3362 -631 0
1 -3362 572 0
1 -3377 616 0
1 3377 587 0
1 3377 -662 0
1 3377 -631 0
1 -3392 -3393 0
1 -3392 647 0
1 3392 -662 0
1 -3407 512 0
1 -3407 -647 0
1 -3407 -632 0
1 3407 602 0
1 -601 3362 0
1 -601 -3212 0
1 601 3348 0
1 -601 3318 0
1 -616 -3362 0
1 616 615 0
1 616 -3272 0
1 616 -3303 0
1 -616 3212 0
1 616 3287 0
1 616 601 0
1 631 -3303 0
1 631 -3273 0
1 -631 -3212 0
1 -631 -3377 0
1 631 -3258 0
1 -3303 -676 0
1 -3303 -646 0
1 -3303 587 0
1 3303 -631 0
1 3303 -572 0
1 -3318 -706 0
1 3318 -676 0
1 3318 646 0
1 -3318 -616 0
1 3318 -661 0
1 3318 3317 0
1 -3333 -722 0
1 3333 -692 0
1 3333 -631 0
1 3348 -3333 0
1 3348 587 0
1 -3348 3347 0
1 3348 -692 0
1 -3348 -601 0
1 -661 -3303 0
1 661 3273 0
1 -661 3243 0
1 -661 3288 0
1 661 -3258 0
1 676 3303 0
1 676 -661 0
1 -676 -3318 0
1 -676 3288 0
1 691 3168 0
1 -691 -3243 0
1 691 3153 0
1 -691 -3318 0
1 691 3288 0
1 706 3243 0
1 706 -3153 0
1 3243 -676 0
1 -3243 751 0
1 3243 691 0
1 3243 661 0
1 -3243 -631 0
1 -3258 -646 0
1 -3258 691 0
1 -3258 -631 0
1 -3258 3257 0
1 -3258 766 0
1 3273 -676 0
1 3273 -752 0
1 3273 722 0
1 3273 -691 0
1 -3273 631 0
1 3273 767 0
1 3288 -737 0
1 -3288 -722 0
1 -3288 -631 0
1 721 3108 0
1 -721 3153 0
1 721 722 0
1 -721 -3258 0
1 736 3168 0
1 736 3123 0
1 736 3228 0
1 -736 3198 0
1 751 -3093 0
1 -751 -3228 0
1 766 -3108 0
1 -766 -3093 0
1 -3183 3182 0
1 3198 -721 0
1 3198 3197 0
1 -3213 -751 0
1 3213 691 0
1 -3228 -766 0
1 -423 -3616 0
1 423 -422 0
1 423 3662 0
1 423 3677 0
1 423 3646 0
1 438 -3692 0
1 -438 -3662 0
1 438 -3631 0
1 -438 -3601 0
1 -438 -3646 0
1 -453 452 0
1 453 -3571 0
1 -453 -468 0
1 -453 3677 0
1 468 -453 0
1 468 -3692 0
1 468 3571 0
1 -468 -3677 0
1 -3662 513 0
1 3662 -528 0
1 3662 -498 0
1 3677 498 0
1 3677 438 0
1 -3677 3676 0
1 -3692 -453 0
1 -3692 3691 0
1 3707 -438 0
1 -3707 -3708 0
1 483 -3527 0
1 -483 -3662 0
1 -483 498 0
1 -483 3512 0
1 498 483 0
1 -498 -3662 0
1 498 -497 0
1 498 3677 0
1 -498 3647 0
1 -513 -512 0
1 513 3512 0
1 528 -513 0
1 528 3662 0
1 -528 3632 0
1 -3602 513 0
1 3602 -3617 0
1 -3602 453 0
1 3602 -528 0
1 -3602 3603 0
1 -3617 3616 0
1 3617 -513 0
1 3617 -3618 0
1 -3617 483 0
1 3617 -558 0
1 3617 -543 0
1 3632 483 0
1 -3632 -453 0
1 -3632 528 0
1 -3632 -3631 0
1 -3647 -513 0
1 3647 -3648 0
1 -3647 -453 0
1 -3647 -468 0
1 -543 3617 0
1 543 -3557 0
1 -543 3482 0
1 -543 -3452 0
1 -558 -3602 0
1 -558 -3572 0
1 573 3587 0
1 573 -3557 0
1 -573 3483 0
1 573 3452 0
1 -573 -572 0
1 -588 -3617 0
1 -588 3557 0
1 -588 -3528 0
1 588 -3498 0
1 588 -3572 0
1 -588 3452 0
1 588 573 0
1 -3542 -3557 0
1 3542 -647 0
1 -3542 588 0
1 -3542 528 0
1 3542 -632 0
1 -3542 602 0
1 3557 3556 0
1 -3557 -678 0
1 3557 558 0
1 -3557 -528 0
1 3557 -602 0
1 3572 -618 0
1 -3572 528 0
1 -3572 -573 0
1 -3587 -3586 0
1 3587 3588 0
1 -3587 -618 0
1 3587 558 0
1 -3587 -528 0
1 -3587 -3572 0
1 -3587 -543 0
1 602 -3392 0
1 602 -3557 0
1 -617 -3557 0
1 -617 616 0
1 617 -3528 0
1 617 -3498 0
1 617 -3483 0
1 -617 3452 0
1 -617 -3422 0
1 632 3528 0
1 632 3438 0
1 -647 3392 0
1 -647 3557 0
1 647 646 0
1 647 648 0
1 647 3528 0
1 -647 3468 0
1 -647 -632 0
1 647 3483 0
1 3483 -677 0
1 3483 -647 0
1 -3483 -632 0
1 -3498 647 0
1 3498 -617 0
1 3513 708 0
1 -3513 678 0
1 3513 -3528 0
1 -3513 588 0
1 3513 -723 0
1 3528 -678 0
1 -3528 -647 0
1 3528 602 0
1 -662 3392 0
1 -662 677 0
1 662 -3438 0
1 -662 -3453 0
1 677 3333 0
1 -677 -3498 0
1 -677 -3377 0
1 677 3348 0
1 -677 3453 0
1 -692 -3393 0
1 -692 3333 0
1 -692 3498 0
1 692 3438 0
1 692 -3408 0
1 -692 -3348 0
1 692 -693 0
1 707 3393 0
1 707 3438 0
1 707 -3348 0
1 -707 -3483 0
1 3423 737 0
1 3423 632 0
1 -3423 3422 0
1 -3438 -737 0
1 -3438 632 0
1 3453 677 0
1 3453 -647 0
1 -3453 753 0
1 -3453 692 0
1 3453 -632 0
1 3468 -768 0
1 -3468 -707 0
1 -3468 662 0
1 -3468 632 0
1 -722 737 0
1 -722 3348 0
1 737 -3438 0
1 737 3408 0
1 737 -722 0
1 737 -3378 0
1 -737 3318 0
1 752 -3363 0
1 -752 751 0
1 752 3378 0
1 752 -3288 0
1 767 -768 0
1 -767 -3393 0
1 767 -3273 0
1 767 752 0
1 -767 3288 0
1 767 3423 0
1 -3363 752 0
1 -3363 -722 0
1 -3363 767 0
1 -3378 -3363 0
1 -3378 3377 0
1 -3378 -722 0
1 3393 3392 0
1 3393 -722 0
1 3408 -737 0
1 -3408 -3407 0
1 3408 -722 0
1 -603 -3617 0
1 603 -618 0
1 -603 -3632 0
1 -603 3678 0
1 -603 -3647 0
1 -618 3678 0
1 -618 -3647 0
1 -633 -3603 0
1 -633 3678 0
1 648 3663 0
1 648 -633 0
1 3663 -678 0
1 3663 3678 0
1 3663 -3662 0
1 3663 -693 0
1 3678 648 0
1 3678 -618 0
1 3678 -3663 0
1 3678 -693 0
1 -3678 -3677 0
1 -3693 -618 0
1 3693 3708 0
1 3708 -3707 0
1 -3708 -3693 0
1 663 -3648 0
1 -663 -678 0
1 663 3633 0
1 663 3603 0
1 663 -662 0
1 663 3542 0
1 663 -3513 0
1 -663 -3678 0
1 678 3557 0
1 -678 3678 0
1 693 3648 0
1 -693 -3633 0
1 693 3513 0
1 -708 -3648 0
1 708 3633 0
1 708 3543 0
1 3603 708 0
1 -3603 678 0
1 3603 753 0
1 3603 723 0
1 -3603 -693 0
1 3618 -3617 0
1 3618 678 0
1 3618 -753 0
1 3648 678 0
1 3648 -693 0
1 -3648 633 0
1 -3648 -3647 0
1 723 738 0
1 723 3558 0
1 -723 -722 0
1 723 3603 0
1 738 737 0
1 738 -723 0
1 738 -3483 0
1 753 -3618 0
1 753 -3603 0
1 -753 -3573 0
1 753 -3453 0
1 768 -3558 0
1 768 3603 0
1 -768 3543 0
1 768 3453 0
1 -3543 3558 0
1 3558 768 0
1 3558 -708 0
1 -3558 -753 0
1 -3558 723 0
1 3558 -693 0
1 3558 3543 0
1 -3573 -768 0
1 -3573 -753 0
1 -3573 723 0
1 -3588 -708 0
1 3588 723 0
1 3588 693 0
